--------------------------------------------------
s SATISFIABLE
benchmarks_SAT/INST_25x25/25/inst25x25_25_0.cnf : 357 ms.
--------------------------------------------------
s SATISFIABLE
benchmarks_SAT/INST_25x25/25/inst25x25_25_10.cnf : 474 ms.
--------------------------------------------------
s SATISFIABLE
benchmarks_SAT/INST_25x25/25/inst25x25_25_11.cnf : 2583 ms.
--------------------------------------------------
s SATISFIABLE
benchmarks_SAT/INST_25x25/25/inst25x25_25_12.cnf : 1149 ms.
--------------------------------------------------
s SATISFIABLE
benchmarks_SAT/INST_25x25/25/inst25x25_25_13.cnf : 478 ms.
--------------------------------------------------
s SATISFIABLE
benchmarks_SAT/INST_25x25/25/inst25x25_25_14.cnf : 315 ms.
--------------------------------------------------
s SATISFIABLE
benchmarks_SAT/INST_25x25/25/inst25x25_25_15.cnf : 1137 ms.
--------------------------------------------------
s SATISFIABLE
benchmarks_SAT/INST_25x25/25/inst25x25_25_16.cnf : 634 ms.
--------------------------------------------------
s SATISFIABLE
benchmarks_SAT/INST_25x25/25/inst25x25_25_17.cnf : 444 ms.
--------------------------------------------------
s SATISFIABLE
benchmarks_SAT/INST_25x25/25/inst25x25_25_18.cnf : 327 ms.
--------------------------------------------------
s SATISFIABLE
benchmarks_SAT/INST_25x25/25/inst25x25_25_19.cnf : 561 ms.
--------------------------------------------------
s SATISFIABLE
benchmarks_SAT/INST_25x25/25/inst25x25_25_1.cnf : 264 ms.
--------------------------------------------------
s SATISFIABLE
benchmarks_SAT/INST_25x25/25/inst25x25_25_20.cnf : 1093 ms.
--------------------------------------------------
s SATISFIABLE
benchmarks_SAT/INST_25x25/25/inst25x25_25_21.cnf : 1385 ms.
--------------------------------------------------
s SATISFIABLE
benchmarks_SAT/INST_25x25/25/inst25x25_25_22.cnf : 1022 ms.
--------------------------------------------------
s SATISFIABLE
benchmarks_SAT/INST_25x25/25/inst25x25_25_23.cnf : 1271 ms.
--------------------------------------------------
s SATISFIABLE
benchmarks_SAT/INST_25x25/25/inst25x25_25_24.cnf : 1063 ms.
--------------------------------------------------
s SATISFIABLE
benchmarks_SAT/INST_25x25/25/inst25x25_25_25.cnf : 567 ms.
--------------------------------------------------
s SATISFIABLE
benchmarks_SAT/INST_25x25/25/inst25x25_25_26.cnf : 996 ms.
--------------------------------------------------
s SATISFIABLE
benchmarks_SAT/INST_25x25/25/inst25x25_25_27.cnf : 234 ms.
--------------------------------------------------
s SATISFIABLE
benchmarks_SAT/INST_25x25/25/inst25x25_25_28.cnf : 284 ms.
--------------------------------------------------
s SATISFIABLE
benchmarks_SAT/INST_25x25/25/inst25x25_25_29.cnf : 257 ms.
--------------------------------------------------
s SATISFIABLE
benchmarks_SAT/INST_25x25/25/inst25x25_25_2.cnf : 492 ms.
--------------------------------------------------
s SATISFIABLE
benchmarks_SAT/INST_25x25/25/inst25x25_25_30.cnf : 549 ms.
--------------------------------------------------
s SATISFIABLE
benchmarks_SAT/INST_25x25/25/inst25x25_25_31.cnf : 162 ms.
--------------------------------------------------
s SATISFIABLE
benchmarks_SAT/INST_25x25/25/inst25x25_25_32.cnf : 444 ms.
--------------------------------------------------
s SATISFIABLE
benchmarks_SAT/INST_25x25/25/inst25x25_25_33.cnf : 1145 ms.
--------------------------------------------------
s SATISFIABLE
benchmarks_SAT/INST_25x25/25/inst25x25_25_34.cnf : 250 ms.
--------------------------------------------------
s SATISFIABLE
benchmarks_SAT/INST_25x25/25/inst25x25_25_35.cnf : 250 ms.
--------------------------------------------------
s SATISFIABLE
benchmarks_SAT/INST_25x25/25/inst25x25_25_36.cnf : 1258 ms.
--------------------------------------------------
s SATISFIABLE
benchmarks_SAT/INST_25x25/25/inst25x25_25_37.cnf : 1710 ms.
--------------------------------------------------
s SATISFIABLE
benchmarks_SAT/INST_25x25/25/inst25x25_25_38.cnf : 545 ms.
--------------------------------------------------
s SATISFIABLE
benchmarks_SAT/INST_25x25/25/inst25x25_25_39.cnf : 2354 ms.
--------------------------------------------------
s SATISFIABLE
benchmarks_SAT/INST_25x25/25/inst25x25_25_3.cnf : 285 ms.
--------------------------------------------------
s SATISFIABLE
benchmarks_SAT/INST_25x25/25/inst25x25_25_40.cnf : 430 ms.
--------------------------------------------------
s SATISFIABLE
benchmarks_SAT/INST_25x25/25/inst25x25_25_41.cnf : 1150 ms.
--------------------------------------------------
s SATISFIABLE
benchmarks_SAT/INST_25x25/25/inst25x25_25_42.cnf : 1157 ms.
--------------------------------------------------
s SATISFIABLE
benchmarks_SAT/INST_25x25/25/inst25x25_25_43.cnf : 1115 ms.
--------------------------------------------------
s SATISFIABLE
benchmarks_SAT/INST_25x25/25/inst25x25_25_44.cnf : 274 ms.
--------------------------------------------------
s SATISFIABLE
benchmarks_SAT/INST_25x25/25/inst25x25_25_45.cnf : 1316 ms.
--------------------------------------------------
s SATISFIABLE
benchmarks_SAT/INST_25x25/25/inst25x25_25_46.cnf : 1223 ms.
--------------------------------------------------
s SATISFIABLE
benchmarks_SAT/INST_25x25/25/inst25x25_25_47.cnf : 277 ms.
--------------------------------------------------
s SATISFIABLE
benchmarks_SAT/INST_25x25/25/inst25x25_25_48.cnf : 549 ms.
--------------------------------------------------
s SATISFIABLE
benchmarks_SAT/INST_25x25/25/inst25x25_25_49.cnf : 977 ms.
--------------------------------------------------
s SATISFIABLE
benchmarks_SAT/INST_25x25/25/inst25x25_25_4.cnf : 630 ms.
--------------------------------------------------
s SATISFIABLE
benchmarks_SAT/INST_25x25/25/inst25x25_25_50.cnf : 296 ms.
--------------------------------------------------
s SATISFIABLE
benchmarks_SAT/INST_25x25/25/inst25x25_25_51.cnf : 964 ms.
--------------------------------------------------
s SATISFIABLE
benchmarks_SAT/INST_25x25/25/inst25x25_25_52.cnf : 545 ms.
--------------------------------------------------
s SATISFIABLE
benchmarks_SAT/INST_25x25/25/inst25x25_25_53.cnf : 564 ms.
--------------------------------------------------
s SATISFIABLE
benchmarks_SAT/INST_25x25/25/inst25x25_25_54.cnf : 568 ms.
--------------------------------------------------
s SATISFIABLE
benchmarks_SAT/INST_25x25/25/inst25x25_25_55.cnf : 169 ms.
--------------------------------------------------
s SATISFIABLE
benchmarks_SAT/INST_25x25/25/inst25x25_25_56.cnf : 437 ms.
--------------------------------------------------
s SATISFIABLE
benchmarks_SAT/INST_25x25/25/inst25x25_25_57.cnf : 816 ms.
--------------------------------------------------
s SATISFIABLE
benchmarks_SAT/INST_25x25/25/inst25x25_25_58.cnf : 267 ms.
--------------------------------------------------
s SATISFIABLE
benchmarks_SAT/INST_25x25/25/inst25x25_25_59.cnf : 306 ms.
--------------------------------------------------
s SATISFIABLE
benchmarks_SAT/INST_25x25/25/inst25x25_25_5.cnf : 357 ms.
--------------------------------------------------
s SATISFIABLE
benchmarks_SAT/INST_25x25/25/inst25x25_25_60.cnf : 184 ms.
--------------------------------------------------
s SATISFIABLE
benchmarks_SAT/INST_25x25/25/inst25x25_25_61.cnf : 1330 ms.
--------------------------------------------------
s SATISFIABLE
benchmarks_SAT/INST_25x25/25/inst25x25_25_62.cnf : 530 ms.
--------------------------------------------------
s SATISFIABLE
benchmarks_SAT/INST_25x25/25/inst25x25_25_63.cnf : 1173 ms.
--------------------------------------------------
s SATISFIABLE
benchmarks_SAT/INST_25x25/25/inst25x25_25_64.cnf : 1198 ms.
--------------------------------------------------
s SATISFIABLE
benchmarks_SAT/INST_25x25/25/inst25x25_25_65.cnf : 447 ms.
--------------------------------------------------
s SATISFIABLE
benchmarks_SAT/INST_25x25/25/inst25x25_25_66.cnf : 264 ms.
--------------------------------------------------
s SATISFIABLE
benchmarks_SAT/INST_25x25/25/inst25x25_25_67.cnf : 1221 ms.
--------------------------------------------------
s SATISFIABLE
benchmarks_SAT/INST_25x25/25/inst25x25_25_68.cnf : 601 ms.
--------------------------------------------------
s SATISFIABLE
benchmarks_SAT/INST_25x25/25/inst25x25_25_69.cnf : 442 ms.
--------------------------------------------------
s SATISFIABLE
benchmarks_SAT/INST_25x25/25/inst25x25_25_6.cnf : 349 ms.
--------------------------------------------------
s SATISFIABLE
benchmarks_SAT/INST_25x25/25/inst25x25_25_70.cnf : 492 ms.
--------------------------------------------------
s SATISFIABLE
benchmarks_SAT/INST_25x25/25/inst25x25_25_71.cnf : 186 ms.
--------------------------------------------------
s SATISFIABLE
benchmarks_SAT/INST_25x25/25/inst25x25_25_72.cnf : 376 ms.
--------------------------------------------------
s SATISFIABLE
benchmarks_SAT/INST_25x25/25/inst25x25_25_73.cnf : 1327 ms.
--------------------------------------------------
s SATISFIABLE
benchmarks_SAT/INST_25x25/25/inst25x25_25_74.cnf : 197 ms.
--------------------------------------------------
s SATISFIABLE
benchmarks_SAT/INST_25x25/25/inst25x25_25_75.cnf : 678 ms.
--------------------------------------------------
s SATISFIABLE
benchmarks_SAT/INST_25x25/25/inst25x25_25_76.cnf : 515 ms.
--------------------------------------------------
s SATISFIABLE
benchmarks_SAT/INST_25x25/25/inst25x25_25_77.cnf : 568 ms.
--------------------------------------------------
s SATISFIABLE
benchmarks_SAT/INST_25x25/25/inst25x25_25_78.cnf : 1166 ms.
--------------------------------------------------
s SATISFIABLE
benchmarks_SAT/INST_25x25/25/inst25x25_25_79.cnf : 804 ms.
--------------------------------------------------
s SATISFIABLE
benchmarks_SAT/INST_25x25/25/inst25x25_25_7.cnf : 1085 ms.
--------------------------------------------------
s SATISFIABLE
benchmarks_SAT/INST_25x25/25/inst25x25_25_80.cnf : 546 ms.
--------------------------------------------------
s SATISFIABLE
benchmarks_SAT/INST_25x25/25/inst25x25_25_81.cnf : 1264 ms.
--------------------------------------------------
s SATISFIABLE
benchmarks_SAT/INST_25x25/25/inst25x25_25_82.cnf : 458 ms.
--------------------------------------------------
s SATISFIABLE
benchmarks_SAT/INST_25x25/25/inst25x25_25_83.cnf : 1558 ms.
--------------------------------------------------
s SATISFIABLE
benchmarks_SAT/INST_25x25/25/inst25x25_25_84.cnf : 1203 ms.
--------------------------------------------------
s SATISFIABLE
benchmarks_SAT/INST_25x25/25/inst25x25_25_85.cnf : 1260 ms.
--------------------------------------------------
s SATISFIABLE
benchmarks_SAT/INST_25x25/25/inst25x25_25_86.cnf : 1159 ms.
--------------------------------------------------
s SATISFIABLE
benchmarks_SAT/INST_25x25/25/inst25x25_25_87.cnf : 1154 ms.
--------------------------------------------------
s SATISFIABLE
benchmarks_SAT/INST_25x25/25/inst25x25_25_88.cnf : 245 ms.
--------------------------------------------------
s SATISFIABLE
benchmarks_SAT/INST_25x25/25/inst25x25_25_89.cnf : 1312 ms.
--------------------------------------------------
s SATISFIABLE
benchmarks_SAT/INST_25x25/25/inst25x25_25_8.cnf : 540 ms.
--------------------------------------------------
s SATISFIABLE
benchmarks_SAT/INST_25x25/25/inst25x25_25_90.cnf : 326 ms.
--------------------------------------------------
s SATISFIABLE
benchmarks_SAT/INST_25x25/25/inst25x25_25_91.cnf : 823 ms.
--------------------------------------------------
s SATISFIABLE
benchmarks_SAT/INST_25x25/25/inst25x25_25_92.cnf : 537 ms.
--------------------------------------------------
s SATISFIABLE
benchmarks_SAT/INST_25x25/25/inst25x25_25_93.cnf : 178 ms.
--------------------------------------------------
s SATISFIABLE
benchmarks_SAT/INST_25x25/25/inst25x25_25_94.cnf : 544 ms.
--------------------------------------------------
s SATISFIABLE
benchmarks_SAT/INST_25x25/25/inst25x25_25_95.cnf : 380 ms.
--------------------------------------------------
s SATISFIABLE
benchmarks_SAT/INST_25x25/25/inst25x25_25_96.cnf : 668 ms.
--------------------------------------------------
s SATISFIABLE
benchmarks_SAT/INST_25x25/25/inst25x25_25_97.cnf : 509 ms.
--------------------------------------------------
s SATISFIABLE
benchmarks_SAT/INST_25x25/25/inst25x25_25_98.cnf : 465 ms.
--------------------------------------------------
s SATISFIABLE
benchmarks_SAT/INST_25x25/25/inst25x25_25_99.cnf : 303 ms.
--------------------------------------------------
s SATISFIABLE
benchmarks_SAT/INST_25x25/25/inst25x25_25_9.cnf : 565 ms.
